(declare-fun C1 () Real)
(declare-fun C2 () Real)
(declare-fun C3 () Real)
(declare-fun C4 () Real)
(declare-fun C5 () Real)
(declare-fun C6 () Real)
(declare-fun C7 () Real)
(declare-fun C8 () Real)
(declare-fun C9 () Real)
(declare-fun C10 () Real)
(declare-fun y () Real)
(assert ( and ( or  (<=  (+  (* 1 C1)  (* 1 C2)  (* 1 C3)  (* 1 C4)  (* 1 C5)  (* 1 C6)  (* 1 C7)  (* 1 C8)  (* 1 C9)  (* 1 C10) ) 1158 )  (<=  (+  (* 2 C1)  (* 1 C2)  (* 1 C3)  (* 1 C4)  (* 1 C5)  (* 1 C6)  (* 1 C7)  (* 1 C8)  (* 1 C9)  (* 1 C10) ) 1312 )  (<=  (+  (* 2 C1)  (* 2 C2)  (* 1 C3)  (* 1 C4)  (* 1 C5)  (* 1 C6)  (* 1 C7)  (* 1 C8)  (* 1 C9)  (* 1 C10) ) 1735 )  (<=  (+  (* 2 C1)  (* 2 C2)  (* 2 C3)  (* 1 C4)  (* 1 C5)  (* 1 C6)  (* 1 C7)  (* 1 C8)  (* 1 C9)  (* 1 C10) ) 2316 )  (<=  (+  (* 3 C1)  (* 2 C2)  (* 2 C3)  (* 1 C4)  (* 1 C5)  (* 1 C6)  (* 1 C7)  (* 1 C8)  (* 1 C9)  (* 1 C10) ) 2517 )  (<=  (+  (* 3 C1)  (* 2 C2)  (* 2 C3)  (* 2 C4)  (* 1 C5)  (* 1 C6)  (* 1 C7)  (* 1 C8)  (* 1 C9)  (* 1 C10) ) 2554 )  (<=  (+  (* 3 C1)  (* 2 C2)  (* 2 C3)  (* 2 C4)  (* 2 C5)  (* 1 C6)  (* 1 C7)  (* 1 C8)  (* 1 C9)  (* 1 C10) ) 2624 )  (<=  (+  (* 3 C1)  (* 3 C2)  (* 2 C3)  (* 2 C4)  (* 2 C5)  (* 1 C6)  (* 1 C7)  (* 1 C8)  (* 1 C9)  (* 1 C10) ) 2947 )  (<=  (+  (* 3 C1)  (* 3 C2)  (* 2 C3)  (* 2 C4)  (* 2 C5)  (* 2 C6)  (* 1 C7)  (* 1 C8)  (* 1 C9)  (* 1 C10) ) 3470 )  (<=  (+  (* 3 C1)  (* 3 C2)  (* 3 C3)  (* 2 C4)  (* 2 C5)  (* 2 C6)  (* 1 C7)  (* 1 C8)  (* 1 C9)  (* 1 C10) ) 3474 )  (<=  (+  (* 4 C1)  (* 3 C2)  (* 3 C3)  (* 2 C4)  (* 2 C5)  (* 2 C6)  (* 1 C7)  (* 1 C8)  (* 1 C9)  (* 1 C10) ) 3511 )  (<=  (+  (* 4 C1)  (* 3 C2)  (* 3 C3)  (* 2 C4)  (* 2 C5)  (* 2 C6)  (* 2 C7)  (* 1 C8)  (* 1 C9)  (* 1 C10) ) 3769 )  (<=  (+  (* 4 C1)  (* 3 C2)  (* 3 C3)  (* 2 C4)  (* 2 C5)  (* 2 C6)  (* 2 C7)  (* 2 C8)  (* 1 C9)  (* 1 C10) ) 3936 )  (<=  (+  (* 4 C1)  (* 4 C2)  (* 3 C3)  (* 2 C4)  (* 2 C5)  (* 2 C6)  (* 2 C7)  (* 2 C8)  (* 1 C9)  (* 1 C10) ) 4460 )  (<=  (+  (* 4 C1)  (* 4 C2)  (* 3 C3)  (* 2 C4)  (* 2 C5)  (* 2 C6)  (* 2 C7)  (* 2 C8)  (* 2 C9)  (* 1 C10) ) 4632 )  (<=  (+  (* 5 C1)  (* 4 C2)  (* 3 C3)  (* 2 C4)  (* 2 C5)  (* 2 C6)  (* 2 C7)  (* 2 C8)  (* 2 C9)  (* 1 C10) ) 4801 ) ) ( or  (<=  (+  (* 1 C1)  (* 1 C2)  (* 1 C3)  (* 1 C4)  (* 1 C5)  (* 1 C6)  (* 1 C7)  (* 1 C8)  (* 1 C9) ) 1158 )  (<=  (+  (* 2 C1)  (* 1 C2)  (* 1 C3)  (* 1 C4)  (* 1 C5)  (* 1 C6)  (* 1 C7)  (* 1 C8)  (* 1 C9) ) 1312 )  (<=  (+  (* 2 C1)  (* 2 C2)  (* 1 C3)  (* 1 C4)  (* 1 C5)  (* 1 C6)  (* 1 C7)  (* 1 C8)  (* 1 C9) ) 1735 )  (<=  (+  (* 2 C1)  (* 2 C2)  (* 2 C3)  (* 1 C4)  (* 1 C5)  (* 1 C6)  (* 1 C7)  (* 1 C8)  (* 1 C9) ) 2316 )  (<=  (+  (* 3 C1)  (* 2 C2)  (* 2 C3)  (* 1 C4)  (* 1 C5)  (* 1 C6)  (* 1 C7)  (* 1 C8)  (* 1 C9) ) 2517 )  (<=  (+  (* 3 C1)  (* 2 C2)  (* 2 C3)  (* 2 C4)  (* 1 C5)  (* 1 C6)  (* 1 C7)  (* 1 C8)  (* 1 C9) ) 2554 )  (<=  (+  (* 3 C1)  (* 2 C2)  (* 2 C3)  (* 2 C4)  (* 2 C5)  (* 1 C6)  (* 1 C7)  (* 1 C8)  (* 1 C9) ) 2624 )  (<=  (+  (* 3 C1)  (* 3 C2)  (* 2 C3)  (* 2 C4)  (* 2 C5)  (* 1 C6)  (* 1 C7)  (* 1 C8)  (* 1 C9) ) 2947 )  (<=  (+  (* 3 C1)  (* 3 C2)  (* 2 C3)  (* 2 C4)  (* 2 C5)  (* 2 C6)  (* 1 C7)  (* 1 C8)  (* 1 C9) ) 3470 )  (<=  (+  (* 3 C1)  (* 3 C2)  (* 3 C3)  (* 2 C4)  (* 2 C5)  (* 2 C6)  (* 1 C7)  (* 1 C8)  (* 1 C9) ) 3474 )  (<=  (+  (* 4 C1)  (* 3 C2)  (* 3 C3)  (* 2 C4)  (* 2 C5)  (* 2 C6)  (* 1 C7)  (* 1 C8)  (* 1 C9) ) 3511 )  (<=  (+  (* 4 C1)  (* 3 C2)  (* 3 C3)  (* 2 C4)  (* 2 C5)  (* 2 C6)  (* 2 C7)  (* 1 C8)  (* 1 C9) ) 3769 )  (<=  (+  (* 4 C1)  (* 3 C2)  (* 3 C3)  (* 2 C4)  (* 2 C5)  (* 2 C6)  (* 2 C7)  (* 2 C8)  (* 1 C9) ) 3936 )  (<=  (+  (* 4 C1)  (* 4 C2)  (* 3 C3)  (* 2 C4)  (* 2 C5)  (* 2 C6)  (* 2 C7)  (* 2 C8)  (* 1 C9) ) 4460 ) ) ( or  (<=  (+  (* 1 C1)  (* 1 C2)  (* 1 C3)  (* 1 C4)  (* 1 C5)  (* 1 C6)  (* 1 C7)  (* 1 C8) ) 1158 )  (<=  (+  (* 2 C1)  (* 1 C2)  (* 1 C3)  (* 1 C4)  (* 1 C5)  (* 1 C6)  (* 1 C7)  (* 1 C8) ) 1312 )  (<=  (+  (* 2 C1)  (* 2 C2)  (* 1 C3)  (* 1 C4)  (* 1 C5)  (* 1 C6)  (* 1 C7)  (* 1 C8) ) 1735 )  (<=  (+  (* 2 C1)  (* 2 C2)  (* 2 C3)  (* 1 C4)  (* 1 C5)  (* 1 C6)  (* 1 C7)  (* 1 C8) ) 2316 )  (<=  (+  (* 3 C1)  (* 2 C2)  (* 2 C3)  (* 1 C4)  (* 1 C5)  (* 1 C6)  (* 1 C7)  (* 1 C8) ) 2517 )  (<=  (+  (* 3 C1)  (* 2 C2)  (* 2 C3)  (* 2 C4)  (* 1 C5)  (* 1 C6)  (* 1 C7)  (* 1 C8) ) 2554 )  (<=  (+  (* 3 C1)  (* 2 C2)  (* 2 C3)  (* 2 C4)  (* 2 C5)  (* 1 C6)  (* 1 C7)  (* 1 C8) ) 2624 )  (<=  (+  (* 3 C1)  (* 3 C2)  (* 2 C3)  (* 2 C4)  (* 2 C5)  (* 1 C6)  (* 1 C7)  (* 1 C8) ) 2947 )  (<=  (+  (* 3 C1)  (* 3 C2)  (* 2 C3)  (* 2 C4)  (* 2 C5)  (* 2 C6)  (* 1 C7)  (* 1 C8) ) 3470 )  (<=  (+  (* 3 C1)  (* 3 C2)  (* 3 C3)  (* 2 C4)  (* 2 C5)  (* 2 C6)  (* 1 C7)  (* 1 C8) ) 3474 )  (<=  (+  (* 4 C1)  (* 3 C2)  (* 3 C3)  (* 2 C4)  (* 2 C5)  (* 2 C6)  (* 1 C7)  (* 1 C8) ) 3511 )  (<=  (+  (* 4 C1)  (* 3 C2)  (* 3 C3)  (* 2 C4)  (* 2 C5)  (* 2 C6)  (* 2 C7)  (* 1 C8) ) 3769 ) ) ( or  (<=  (+  (* 1 C1)  (* 1 C2)  (* 1 C3)  (* 1 C4)  (* 1 C5)  (* 1 C6)  (* 1 C7) ) 1158 )  (<=  (+  (* 2 C1)  (* 1 C2)  (* 1 C3)  (* 1 C4)  (* 1 C5)  (* 1 C6)  (* 1 C7) ) 1312 )  (<=  (+  (* 2 C1)  (* 2 C2)  (* 1 C3)  (* 1 C4)  (* 1 C5)  (* 1 C6)  (* 1 C7) ) 1735 )  (<=  (+  (* 2 C1)  (* 2 C2)  (* 2 C3)  (* 1 C4)  (* 1 C5)  (* 1 C6)  (* 1 C7) ) 2316 )  (<=  (+  (* 3 C1)  (* 2 C2)  (* 2 C3)  (* 1 C4)  (* 1 C5)  (* 1 C6)  (* 1 C7) ) 2517 )  (<=  (+  (* 3 C1)  (* 2 C2)  (* 2 C3)  (* 2 C4)  (* 1 C5)  (* 1 C6)  (* 1 C7) ) 2554 )  (<=  (+  (* 3 C1)  (* 2 C2)  (* 2 C3)  (* 2 C4)  (* 2 C5)  (* 1 C6)  (* 1 C7) ) 2624 )  (<=  (+  (* 3 C1)  (* 3 C2)  (* 2 C3)  (* 2 C4)  (* 2 C5)  (* 1 C6)  (* 1 C7) ) 2947 )  (<=  (+  (* 3 C1)  (* 3 C2)  (* 2 C3)  (* 2 C4)  (* 2 C5)  (* 2 C6)  (* 1 C7) ) 3470 )  (<=  (+  (* 3 C1)  (* 3 C2)  (* 3 C3)  (* 2 C4)  (* 2 C5)  (* 2 C6)  (* 1 C7) ) 3474 )  (<=  (+  (* 4 C1)  (* 3 C2)  (* 3 C3)  (* 2 C4)  (* 2 C5)  (* 2 C6)  (* 1 C7) ) 3511 ) ) ( or  (<=  (+  (* 1 C1)  (* 1 C2)  (* 1 C3)  (* 1 C4)  (* 1 C5)  (* 1 C6) ) 1158 )  (<=  (+  (* 2 C1)  (* 1 C2)  (* 1 C3)  (* 1 C4)  (* 1 C5)  (* 1 C6) ) 1312 )  (<=  (+  (* 2 C1)  (* 2 C2)  (* 1 C3)  (* 1 C4)  (* 1 C5)  (* 1 C6) ) 1735 )  (<=  (+  (* 2 C1)  (* 2 C2)  (* 2 C3)  (* 1 C4)  (* 1 C5)  (* 1 C6) ) 2316 )  (<=  (+  (* 3 C1)  (* 2 C2)  (* 2 C3)  (* 1 C4)  (* 1 C5)  (* 1 C6) ) 2517 )  (<=  (+  (* 3 C1)  (* 2 C2)  (* 2 C3)  (* 2 C4)  (* 1 C5)  (* 1 C6) ) 2554 )  (<=  (+  (* 3 C1)  (* 2 C2)  (* 2 C3)  (* 2 C4)  (* 2 C5)  (* 1 C6) ) 2624 )  (<=  (+  (* 3 C1)  (* 3 C2)  (* 2 C3)  (* 2 C4)  (* 2 C5)  (* 1 C6) ) 2947 ) ) ( or  (<=  (+  (* 1 C1)  (* 1 C2)  (* 1 C3)  (* 1 C4)  (* 1 C5) ) 1158 )  (<=  (+  (* 2 C1)  (* 1 C2)  (* 1 C3)  (* 1 C4)  (* 1 C5) ) 1312 )  (<=  (+  (* 2 C1)  (* 2 C2)  (* 1 C3)  (* 1 C4)  (* 1 C5) ) 1735 )  (<=  (+  (* 2 C1)  (* 2 C2)  (* 2 C3)  (* 1 C4)  (* 1 C5) ) 2316 )  (<=  (+  (* 3 C1)  (* 2 C2)  (* 2 C3)  (* 1 C4)  (* 1 C5) ) 2517 )  (<=  (+  (* 3 C1)  (* 2 C2)  (* 2 C3)  (* 2 C4)  (* 1 C5) ) 2554 ) ) ( or  (<=  (+  (* 1 C1)  (* 1 C2)  (* 1 C3)  (* 1 C4) ) 1158 )  (<=  (+  (* 2 C1)  (* 1 C2)  (* 1 C3)  (* 1 C4) ) 1312 )  (<=  (+  (* 2 C1)  (* 2 C2)  (* 1 C3)  (* 1 C4) ) 1735 )  (<=  (+  (* 2 C1)  (* 2 C2)  (* 2 C3)  (* 1 C4) ) 2316 )  (<=  (+  (* 3 C1)  (* 2 C2)  (* 2 C3)  (* 1 C4) ) 2517 ) ) ( or  (<=  (+  (* 1 C1)  (* 1 C2)  (* 1 C3) ) 1158 )  (<=  (+  (* 2 C1)  (* 1 C2)  (* 1 C3) ) 1312 )  (<=  (+  (* 2 C1)  (* 2 C2)  (* 1 C3) ) 1735 ) ) ( or  (<=  (+  (* 1 C1)  (* 1 C2) ) 1158 )  (<=  (+  (* 2 C1)  (* 1 C2) ) 1312 ) ) ( or  (<=  (* 1 C1)  1158 ) )  (and (>= C1 11) (>= C2 13) (>= C3 17) (>= C4 25) (>= C5 25) (>= C6 29) (>= C7 35) (>= C8 37) (>= C9 44) (>= C10 48) )  (and (<= C1 685) (<= C2 776) (<= C3 1026) (<= C4 1489) (<= C5 1511) (<= C6 1744) (<= C7 2078) (<= C8 2230) (<= C9 2639) (<= C10 2841) ) (= y (+ (/ C1 1158) (/ C2 1312) (/ C3 1735) (/ C4 2517) (/ C5 2554) (/ C6 2947) (/ C7 3511) (/ C8 3769) (/ C9 4460) (/ C10 4801) )) ))
(maximize y)
(check-sat)
